param set_len = 30;
param target_sum = 9178448994;
param values := [1] 822033086 [2] 272392847 [3] 870713319 [4] 961522205 [5] 815354950 [6] 58219603 [7] 642530536 [8] 192547843 [9] 356385072 [10] 332219273 [11] 946049815 [12] 338002353 [13] 248040817 [14] 511362801 [15] 294836744 [16] 246250750 [17] 155422100 [18] 429698643 [19] 135443997 [20] 1003043557 [21] 497114905 [22] 837743880 [23] 1063601396 [24] 436210126 [25] 671985496 [26] 733831033 [27] 994942039 [28] 673302938 [29] 338255873 [30] 556364479 ;
